(benchmark gametime
:status unknown
:logic QF_AUFBV
:extrafuns ((gtINDEX69  BitVec[32]))
:extrafuns ((gtFIELD__bitsForTID0__gtAGG____anonstruct_D_Work_4  Array[32:32]))
:extrafuns ((gtINDEX70  BitVec[32]))
:extrafuns ((gtAGG__rtDWork  BitVec[32]))
:extrafuns ((gtINDEX67  BitVec[32]))
:extrafuns ((gtINDEX68  BitVec[32]))
:extrafuns ((gtINDEX65  BitVec[32]))
:extrafuns ((gtINDEX66  BitVec[32]))
:extrafuns ((gtINDEX63  BitVec[32]))
:extrafuns ((gtINDEX64  BitVec[32]))
:extrafuns ((gtINDEX62  BitVec[32]))
:extrafuns ((gtINDEX61  BitVec[32]))
:extrafuns ((gtINDEX60  BitVec[32]))
:extrafuns ((gtINDEX59  BitVec[32]))
:extrafuns ((gtINDEX57  BitVec[32]))
:extrafuns ((gtINDEX58  BitVec[32]))
:extrafuns ((gtINDEX55  BitVec[32]))
:extrafuns ((gtINDEX56  BitVec[32]))
:extrafuns ((gtINDEX53  BitVec[32]))
:extrafuns ((gtINDEX54  BitVec[32]))
:extrafuns ((gtINDEX51  BitVec[32]))
:extrafuns ((gtINDEX52  BitVec[32]))
:extrafuns ((gtINDEX50  BitVec[32]))
:extrafuns ((gtINDEX48  BitVec[32]))
:extrafuns ((gtINDEX49  BitVec[32]))
:extrafuns ((gtINDEX47  BitVec[32]))
:extrafuns ((gtINDEX45  BitVec[32]))
:extrafuns ((gtINDEX46  BitVec[32]))
:extrafuns ((gtINDEX43  BitVec[32]))
:extrafuns ((gtINDEX44  BitVec[32]))
:extrafuns ((gtINDEX42  BitVec[32]))
:extrafuns ((gtINDEX40  BitVec[32]))
:extrafuns ((gtINDEX41  BitVec[32]))
:extrafuns ((gtINDEX39  BitVec[32]))
:extrafuns ((gtINDEX37  BitVec[32]))
:extrafuns ((gtINDEX38  BitVec[32]))
:extrafuns ((gtINDEX35  BitVec[32]))
:extrafuns ((gtINDEX36  BitVec[32]))
:extrafuns ((gtINDEX33  BitVec[32]))
:extrafuns ((gtINDEX34  BitVec[32]))
:extrafuns ((gtINDEX31  BitVec[32]))
:extrafuns ((gtINDEX32  BitVec[32]))
:extrafuns ((gtINDEX29  BitVec[32]))
:extrafuns ((gtINDEX30  BitVec[32]))
:extrafuns ((gtINDEX28  BitVec[32]))
:extrafuns ((gtINDEX27  BitVec[32]))
:extrafuns ((gtINDEX26  BitVec[32]))
:extrafuns ((gtINDEX25  BitVec[32]))
:extrafuns ((gtINDEX24  BitVec[32]))
:extrafuns ((gtINDEX23  BitVec[32]))
:extrafuns ((gtINDEX22  BitVec[32]))
:extrafuns ((gtINDEX20  BitVec[32]))
:extrafuns ((gtINDEX21  BitVec[32]))
:extrafuns ((gtINDEX18  BitVec[32]))
:extrafuns ((gtINDEX19  BitVec[32]))
:extrafuns ((gtINDEX16  BitVec[32]))
:extrafuns ((gtINDEX17  BitVec[32]))
:extrafuns ((gtINDEX14  BitVec[32]))
:extrafuns ((gtINDEX15  BitVec[32]))
:extrafuns ((gtINDEX12  BitVec[32]))
:extrafuns ((gtINDEX13  BitVec[32]))
:extrafuns ((gtINDEX10  BitVec[32]))
:extrafuns ((gtINDEX11  BitVec[32]))
:extrafuns ((gtINDEX8  BitVec[32]))
:extrafuns ((gtINDEX9  BitVec[32]))
:extrafuns ((gtINDEX6  BitVec[32]))
:extrafuns ((gtINDEX7  BitVec[32]))
:extrafuns ((gtINDEX4  BitVec[32]))
:extrafuns ((gtINDEX5  BitVec[32]))
:extrafuns ((gtINDEX2  BitVec[32]))
:extrafuns ((gtINDEX3  BitVec[32]))
:extrafuns ((gtINDEX0  BitVec[32]))
:extrafuns ((gtINDEX1  BitVec[32]))
:extrafuns ((gtFIELD__is_Eng__gtAGG____anonstruct_bitsForTID0_5_1_  Array[32:1]))
:extrafuns ((gtFIELD__is_Eng__gtAGG____anonstruct_bitsForTID0_5_2_  Array[32:1]))
:extrafuns ((sf_previousEvent_1_  BitVec[32]))
:extrafuns ((sfEvent__2_  BitVec[32]))
:extrafuns ((gtFIELD__is_Eng__gtAGG____anonstruct_bitsForTID0_5  Array[32:1]))
:extrafuns ((gtFIELD__sent__gtAGG____anonstruct_D_Work_4_1_  Array[32:32]))
:extrafuns ((gtFIELD__sent__gtAGG____anonstruct_D_Work_4_2_  Array[32:32]))
:extrafuns ((gtFIELD__is_active_Eng__gtAGG____anonstruct_bitsForTID0_5  Array[32:1]))
:extrafuns ((gtFIELD__is_active_PURI__gtAGG____anonstruct_bitsForTID0_5  Array[32:1]))
:extrafuns ((gtFIELD__is_active_PVRP__gtAGG____anonstruct_bitsForTID0_5  Array[32:1]))
:extrafuns ((gtFIELD__temporalCounter_i3__gtAGG____anonstruct_D_Work_4  Array[32:32]))
:extrafuns ((gtFIELD__temporalCounter_i3__gtAGG____anonstruct_D_Work_4_1_  Array[32:32]))
:extrafuns ((gtFIELD__is_PPVARP__gtAGG____anonstruct_bitsForTID0_5  Array[32:2]))
:extrafuns ((gtFIELD__is_PPVARP__gtAGG____anonstruct_bitsForTID0_5_1_  Array[32:2]))
:extrafuns ((gtFIELD__n_t_b__gtAGG____anonstruct_D_Work_4  Array[32:32]))
:extrafuns ((gtFIELD__n_t_b__gtAGG____anonstruct_D_Work_4_1_  Array[32:32]))
:extrafuns ((sfEvent__1_  BitVec[32]))
:extrafuns ((gtFIELD__is_active_PPVARP__gtAGG____anonstruct_bitsForTID0_5  Array[32:1]))
:extrafuns ((gtFIELD__temporalCounter_i2__gtAGG____anonstruct_D_Work_4  Array[32:32]))
:extrafuns ((gtFIELD__temporalCounter_i2__gtAGG____anonstruct_D_Work_4_1_  Array[32:32]))
:extrafuns ((gtFIELD__is_PLRI__gtAGG____anonstruct_bitsForTID0_5  Array[32:2]))
:extrafuns ((gtFIELD__is_PLRI__gtAGG____anonstruct_bitsForTID0_5_1_  Array[32:2]))
:extrafuns ((gtFIELD__n_t_n__gtAGG____anonstruct_D_Work_4  Array[32:32]))
:extrafuns ((gtFIELD__n_t_n__gtAGG____anonstruct_D_Work_4_1_  Array[32:32]))
:extrafuns ((gtFIELD__is_active_PLRI__gtAGG____anonstruct_bitsForTID0_5  Array[32:1]))
:extrafuns ((gtFIELD__is_PAVI__gtAGG____anonstruct_bitsForTID0_5  Array[32:3]))
:extrafuns ((gtFIELD__is_active_PAVI__gtAGG____anonstruct_bitsForTID0_5  Array[32:1]))
:extrafuns ((sfEvent_  BitVec[32]))
:extrafuns ((gtFIELD__sent__gtAGG____anonstruct_D_Work_4  Array[32:32]))
:extrapreds ((constraint129 ))
:extrapreds ((constraint128 ))
:extrapreds ((constraint127 ))
:extrapreds ((constraint126 ))
:extrapreds ((constraint125 ))
:extrapreds ((constraint124 ))
:extrapreds ((constraint123 ))
:extrapreds ((constraint122 ))
:extrapreds ((constraint121 ))
:extrapreds ((constraint120 ))
:extrapreds ((constraint119 ))
:extrapreds ((constraint118 ))
:extrapreds ((constraint117 ))
:extrapreds ((constraint116 ))
:extrapreds ((constraint115 ))
:extrapreds ((constraint114 ))
:extrapreds ((constraint113 ))
:extrapreds ((constraint112 ))
:extrapreds ((constraint111 ))
:extrapreds ((constraint110 ))
:extrapreds ((constraint109 ))
:extrapreds ((constraint108 ))
:extrapreds ((constraint107 ))
:extrapreds ((constraint106 ))
:extrapreds ((constraint105 ))
:extrapreds ((constraint104 ))
:extrapreds ((constraint103 ))
:extrapreds ((constraint102 ))
:extrapreds ((constraint101 ))
:extrapreds ((constraint100 ))
:extrapreds ((constraint99 ))
:extrapreds ((constraint98 ))
:extrapreds ((constraint97 ))
:extrapreds ((constraint96 ))
:extrapreds ((constraint95 ))
:extrapreds ((constraint94 ))
:extrapreds ((constraint93 ))
:extrapreds ((constraint92 ))
:extrapreds ((constraint91 ))
:extrapreds ((constraint90 ))
:extrapreds ((constraint89 ))
:extrapreds ((constraint88 ))
:extrapreds ((constraint87 ))
:extrapreds ((constraint86 ))
:extrapreds ((constraint85 ))
:extrapreds ((constraint84 ))
:extrapreds ((constraint83 ))
:extrapreds ((constraint82 ))
:extrapreds ((constraint81 ))
:extrapreds ((constraint80 ))
:extrapreds ((constraint79 ))
:extrapreds ((constraint78 ))
:extrapreds ((constraint77 ))
:extrapreds ((constraint76 ))
:extrapreds ((constraint75 ))
:extrapreds ((constraint74 ))
:extrapreds ((constraint73 ))
:extrapreds ((constraint72 ))
:extrapreds ((constraint71 ))
:extrapreds ((constraint70 ))
:extrapreds ((constraint69 ))
:extrapreds ((constraint68 ))
:extrapreds ((constraint67 ))
:extrapreds ((constraint66 ))
:extrapreds ((constraint65 ))
:extrapreds ((constraint64 ))
:extrapreds ((constraint63 ))
:extrapreds ((constraint62 ))
:extrapreds ((constraint61 ))
:extrapreds ((constraint60 ))
:extrapreds ((constraint59 ))
:extrapreds ((constraint58 ))
:extrapreds ((constraint57 ))
:extrapreds ((constraint56 ))
:extrapreds ((constraint55 ))
:extrapreds ((constraint54 ))
:extrapreds ((constraint53 ))
:extrapreds ((constraint52 ))
:extrapreds ((constraint51 ))
:extrapreds ((constraint50 ))
:extrapreds ((constraint49 ))
:extrapreds ((constraint48 ))
:extrapreds ((constraint47 ))
:extrapreds ((constraint46 ))
:extrapreds ((constraint45 ))
:extrapreds ((constraint44 ))
:extrapreds ((constraint43 ))
:extrapreds ((constraint42 ))
:extrapreds ((constraint41 ))
:extrapreds ((constraint40 ))
:extrapreds ((constraint39 ))
:extrapreds ((constraint38 ))
:extrapreds ((constraint37 ))
:extrapreds ((constraint36 ))
:extrapreds ((constraint35 ))
:extrapreds ((constraint34 ))
:extrapreds ((constraint33 ))
:extrapreds ((constraint32 ))
:extrapreds ((constraint31 ))
:extrapreds ((constraint30 ))
:extrapreds ((constraint29 ))
:extrapreds ((constraint28 ))
:extrapreds ((constraint27 ))
:extrapreds ((constraint26 ))
:extrapreds ((constraint25 ))
:extrapreds ((constraint24 ))
:extrapreds ((constraint23 ))
:extrapreds ((constraint22 ))
:extrapreds ((constraint21 ))
:extrapreds ((constraint20 ))
:extrapreds ((constraint19 ))
:extrapreds ((constraint18 ))
:extrapreds ((constraint17 ))
:extrapreds ((constraint16 ))
:extrapreds ((constraint15 ))
:extrapreds ((constraint14 ))
:extrapreds ((constraint13 ))
:extrapreds ((constraint12 ))
:extrapreds ((constraint11 ))
:extrapreds ((constraint10 ))
:extrapreds ((constraint9 ))
:extrapreds ((constraint8 ))
:extrapreds ((constraint7 ))
:extrapreds ((constraint6 ))
:extrapreds ((constraint5 ))
:extrapreds ((constraint4 ))
:extrapreds ((constraint3 ))
:extrapreds ((constraint2 ))
:extrapreds ((constraint1 ))
:extrapreds ((constraint0 ))
:formula
(flet ($x653 (and constraint0 constraint1 constraint2 constraint3 constraint4 constraint5 constraint6 constraint7 constraint8 constraint9 constraint10 constraint11 constraint12 constraint13 constraint14 constraint15 constraint16 constraint17 constraint18 constraint19 constraint20 constraint21 constraint22 constraint23 constraint24 constraint25 constraint26 constraint27 constraint28 constraint29 constraint30 constraint31 constraint32 constraint33 constraint34 constraint35 constraint36 constraint37 constraint38 constraint39 constraint40 constraint41 constraint42 constraint43 constraint44 constraint45 constraint46 constraint47 constraint48 constraint49 constraint50 constraint51 constraint52 constraint53 constraint54 constraint55 constraint56 constraint57 constraint58 constraint59 constraint60 constraint61 constraint62 constraint63 constraint64 constraint65 constraint66 constraint67 constraint68 constraint69 constraint70 constraint71 constraint72 constraint73 constraint74 constraint75 constraint76 constraint77 constraint78 constraint79 constraint80 constraint81 constraint82 constraint83 constraint84 constraint85 constraint86 constraint87 constraint88 constraint89 constraint90 constraint91 constraint92 constraint93 constraint94 constraint95 constraint96 constraint97 constraint98 constraint99 constraint100 constraint101 constraint102 constraint103 constraint104 constraint105 constraint106 constraint107 constraint108 constraint109 constraint110 constraint111 constraint112 constraint113 constraint114 constraint115 constraint116 constraint117 constraint118 constraint119 constraint120 constraint121 constraint122 constraint123 constraint124 constraint125 constraint126 constraint127 constraint128 constraint129))
(flet ($x391 (= gtINDEX70 (select gtFIELD__bitsForTID0__gtAGG____anonstruct_D_Work_4 gtINDEX69)))
(flet ($x387 (= gtINDEX68 (select gtFIELD__bitsForTID0__gtAGG____anonstruct_D_Work_4 gtINDEX67)))
(flet ($x383 (= gtINDEX66 (select gtFIELD__bitsForTID0__gtAGG____anonstruct_D_Work_4 gtINDEX65)))
(flet ($x379 (= gtINDEX64 (select gtFIELD__bitsForTID0__gtAGG____anonstruct_D_Work_4 gtINDEX63)))
(flet ($x371 (= gtINDEX58 (select gtFIELD__bitsForTID0__gtAGG____anonstruct_D_Work_4 gtINDEX57)))
(flet ($x367 (= gtINDEX56 (select gtFIELD__bitsForTID0__gtAGG____anonstruct_D_Work_4 gtINDEX55)))
(flet ($x363 (= gtINDEX54 (select gtFIELD__bitsForTID0__gtAGG____anonstruct_D_Work_4 gtINDEX53)))
(flet ($x359 (= gtINDEX52 (select gtFIELD__bitsForTID0__gtAGG____anonstruct_D_Work_4 gtINDEX51)))
(flet ($x354 (= gtINDEX49 (select gtFIELD__bitsForTID0__gtAGG____anonstruct_D_Work_4 gtINDEX48)))
(flet ($x349 (= gtINDEX46 (select gtFIELD__bitsForTID0__gtAGG____anonstruct_D_Work_4 gtINDEX45)))
(flet ($x345 (= gtINDEX44 (select gtFIELD__bitsForTID0__gtAGG____anonstruct_D_Work_4 gtINDEX43)))
(flet ($x340 (= gtINDEX41 (select gtFIELD__bitsForTID0__gtAGG____anonstruct_D_Work_4 gtINDEX40)))
(flet ($x335 (= gtINDEX38 (select gtFIELD__bitsForTID0__gtAGG____anonstruct_D_Work_4 gtINDEX37)))
(flet ($x331 (= gtINDEX36 (select gtFIELD__bitsForTID0__gtAGG____anonstruct_D_Work_4 gtINDEX35)))
(flet ($x327 (= gtINDEX34 (select gtFIELD__bitsForTID0__gtAGG____anonstruct_D_Work_4 gtINDEX33)))
(flet ($x323 (= gtINDEX32 (select gtFIELD__bitsForTID0__gtAGG____anonstruct_D_Work_4 gtINDEX31)))
(flet ($x319 (= gtINDEX30 (select gtFIELD__bitsForTID0__gtAGG____anonstruct_D_Work_4 gtINDEX29)))
(flet ($x308 (= gtINDEX21 (select gtFIELD__bitsForTID0__gtAGG____anonstruct_D_Work_4 gtINDEX20)))
(flet ($x304 (= gtINDEX19 (select gtFIELD__bitsForTID0__gtAGG____anonstruct_D_Work_4 gtINDEX18)))
(flet ($x300 (= gtINDEX17 (select gtFIELD__bitsForTID0__gtAGG____anonstruct_D_Work_4 gtINDEX16)))
(flet ($x296 (= gtINDEX15 (select gtFIELD__bitsForTID0__gtAGG____anonstruct_D_Work_4 gtINDEX14)))
(flet ($x292 (= gtINDEX13 (select gtFIELD__bitsForTID0__gtAGG____anonstruct_D_Work_4 gtINDEX12)))
(flet ($x288 (= gtINDEX11 (select gtFIELD__bitsForTID0__gtAGG____anonstruct_D_Work_4 gtINDEX10)))
(flet ($x284 (= gtINDEX9 (select gtFIELD__bitsForTID0__gtAGG____anonstruct_D_Work_4 gtINDEX8)))
(flet ($x280 (= gtINDEX7 (select gtFIELD__bitsForTID0__gtAGG____anonstruct_D_Work_4 gtINDEX6)))
(flet ($x276 (= gtINDEX5 (select gtFIELD__bitsForTID0__gtAGG____anonstruct_D_Work_4 gtINDEX4)))
(flet ($x272 (= gtINDEX3 (select gtFIELD__bitsForTID0__gtAGG____anonstruct_D_Work_4 gtINDEX2)))
(flet ($x268 (= gtINDEX1 (select gtFIELD__bitsForTID0__gtAGG____anonstruct_D_Work_4 gtINDEX0)))
(let (?x252 (extract[0:0] bv1[32]))
(let (?x262 (store gtFIELD__is_Eng__gtAGG____anonstruct_bitsForTID0_5_1_ gtINDEX70 ?x252))
(flet ($x509 (iff constraint58 (= gtFIELD__is_Eng__gtAGG____anonstruct_bitsForTID0_5_2_ ?x262)))
(let (?x258 (select gtFIELD__is_Eng__gtAGG____anonstruct_bitsForTID0_5_1_ gtINDEX68))
(let (?x253 (store gtFIELD__is_Eng__gtAGG____anonstruct_bitsForTID0_5 gtINDEX66 ?x252))
(flet ($x503 (iff constraint55 (= gtFIELD__is_Eng__gtAGG____anonstruct_bitsForTID0_5_1_ ?x253)))
(let (?x249 (zero_extend[31] (select gtFIELD__is_Eng__gtAGG____anonstruct_bitsForTID0_5 gtINDEX64)))
(let (?x245 (store gtFIELD__sent__gtAGG____anonstruct_D_Work_4_1_ gtINDEX62 bv0[32]))
(flet ($x499 (iff constraint53 (= gtFIELD__sent__gtAGG____anonstruct_D_Work_4_2_ ?x245)))
(let (?x133 (bvmul bv4294967295[32] bv1[32]))
(flet ($x243 (= (select gtFIELD__sent__gtAGG____anonstruct_D_Work_4_1_ gtINDEX61) ?x133))
(flet ($x239 (= (select gtFIELD__sent__gtAGG____anonstruct_D_Work_4_1_ gtINDEX60) bv9[32]))
(flet ($x235 (= (select gtFIELD__sent__gtAGG____anonstruct_D_Work_4_1_ gtINDEX59) bv4[32]))
(let (?x231 (zero_extend[31] (select gtFIELD__is_Eng__gtAGG____anonstruct_bitsForTID0_5 gtINDEX58)))
(let (?x225 (select gtFIELD__is_active_Eng__gtAGG____anonstruct_bitsForTID0_5 gtINDEX56))
(let (?x219 (select gtFIELD__is_active_PURI__gtAGG____anonstruct_bitsForTID0_5 gtINDEX54))
(let (?x213 (select gtFIELD__is_active_PVRP__gtAGG____anonstruct_bitsForTID0_5 gtINDEX52))
(let (?x210 (store gtFIELD__temporalCounter_i3__gtAGG____anonstruct_D_Work_4 gtINDEX50 bv0[32]))
(flet ($x483 (iff constraint45 (= gtFIELD__temporalCounter_i3__gtAGG____anonstruct_D_Work_4_1_ ?x210)))
(let (?x207 (store gtFIELD__is_PPVARP__gtAGG____anonstruct_bitsForTID0_5 gtINDEX49 (extract[1:0] bv2[32])))
(flet ($x481 (iff constraint44 (= gtFIELD__is_PPVARP__gtAGG____anonstruct_bitsForTID0_5_1_ ?x207)))
(flet ($x204 (= gtFIELD__n_t_b__gtAGG____anonstruct_D_Work_4_1_ (store gtFIELD__n_t_b__gtAGG____anonstruct_D_Work_4 gtINDEX47 bv0[32])))
(let (?x199 (select gtFIELD__is_PPVARP__gtAGG____anonstruct_bitsForTID0_5 gtINDEX46))
(let (?x194 (select gtFIELD__is_active_PPVARP__gtAGG____anonstruct_bitsForTID0_5 gtINDEX44))
(let (?x191 (store gtFIELD__temporalCounter_i2__gtAGG____anonstruct_D_Work_4 gtINDEX42 bv0[32]))
(flet ($x471 (iff constraint39 (= gtFIELD__temporalCounter_i2__gtAGG____anonstruct_D_Work_4_1_ ?x191)))
(let (?x188 (store gtFIELD__is_PLRI__gtAGG____anonstruct_bitsForTID0_5 gtINDEX41 (extract[1:0] bv1[32])))
(flet ($x469 (iff constraint38 (= gtFIELD__is_PLRI__gtAGG____anonstruct_bitsForTID0_5_1_ ?x188)))
(flet ($x185 (= gtFIELD__n_t_n__gtAGG____anonstruct_D_Work_4_1_ (store gtFIELD__n_t_n__gtAGG____anonstruct_D_Work_4 gtINDEX39 bv0[32])))
(let (?x180 (select gtFIELD__is_PLRI__gtAGG____anonstruct_bitsForTID0_5 gtINDEX38))
(let (?x175 (select gtFIELD__is_PLRI__gtAGG____anonstruct_bitsForTID0_5 gtINDEX36))
(let (?x170 (select gtFIELD__is_active_PLRI__gtAGG____anonstruct_bitsForTID0_5 gtINDEX34))
(let (?x162 (select gtFIELD__is_PAVI__gtAGG____anonstruct_bitsForTID0_5 gtINDEX32))
(let (?x157 (select gtFIELD__is_active_PAVI__gtAGG____anonstruct_bitsForTID0_5 gtINDEX30))
(flet ($x149 (= gtFIELD__sent__gtAGG____anonstruct_D_Work_4_1_ (store gtFIELD__sent__gtAGG____anonstruct_D_Work_4 gtINDEX28 ?x133)))
(flet ($x146 (= (select gtFIELD__sent__gtAGG____anonstruct_D_Work_4 gtINDEX27) bv3[32]))
(flet ($x142 (= (select gtFIELD__sent__gtAGG____anonstruct_D_Work_4 gtINDEX26) bv2[32]))
(flet ($x138 (= (select gtFIELD__sent__gtAGG____anonstruct_D_Work_4 gtINDEX25) bv1[32]))
(flet ($x134 (= (select gtFIELD__sent__gtAGG____anonstruct_D_Work_4 gtINDEX24) ?x133))
(flet ($x128 (= (select gtFIELD__sent__gtAGG____anonstruct_D_Work_4 gtINDEX23) bv9[32]))
(flet ($x123 (= (select gtFIELD__sent__gtAGG____anonstruct_D_Work_4 gtINDEX22) bv4[32]))
(let (?x119 (zero_extend[31] (select gtFIELD__is_Eng__gtAGG____anonstruct_bitsForTID0_5 gtINDEX21)))
(let (?x113 (select gtFIELD__is_active_Eng__gtAGG____anonstruct_bitsForTID0_5 gtINDEX19))
(let (?x107 (select gtFIELD__is_active_PURI__gtAGG____anonstruct_bitsForTID0_5 gtINDEX17))
(let (?x101 (select gtFIELD__is_active_PVRP__gtAGG____anonstruct_bitsForTID0_5 gtINDEX15))
(let (?x95 (select gtFIELD__is_PPVARP__gtAGG____anonstruct_bitsForTID0_5 gtINDEX13))
(let (?x90 (select gtFIELD__is_active_PPVARP__gtAGG____anonstruct_bitsForTID0_5 gtINDEX11))
(let (?x81 (zero_extend[30] (select gtFIELD__is_PLRI__gtAGG____anonstruct_bitsForTID0_5 gtINDEX9)))
(let (?x76 (zero_extend[30] (select gtFIELD__is_PLRI__gtAGG____anonstruct_bitsForTID0_5 gtINDEX7)))
(let (?x70 (select gtFIELD__is_active_PLRI__gtAGG____anonstruct_bitsForTID0_5 gtINDEX5))
(let (?x60 (zero_extend[29] (select gtFIELD__is_PAVI__gtAGG____anonstruct_bitsForTID0_5 gtINDEX3)))
(let (?x53 (select gtFIELD__is_active_PAVI__gtAGG____anonstruct_bitsForTID0_5 gtINDEX1))
(flet ($x652 (and (iff constraint0 (not (= sfEvent_ bv8[32]))) (iff constraint1 (not (= (zero_extend[31] ?x53) bv0[32]))) (iff constraint2 (= ?x60 bv1[32])) (iff constraint3 (not (= sfEvent_ bv2[32]))) (iff constraint4 (not (= sfEvent_ bv3[32]))) (iff constraint5 (not (= (zero_extend[31] ?x70) bv0[32]))) (iff constraint6 (not (= ?x76 bv1[32]))) (iff constraint7 (= ?x81 bv2[32])) (iff constraint8 (not (= sfEvent_ bv4[32]))) (iff constraint9 (not (= sfEvent_ bv5[32]))) (iff constraint10 (not (= (zero_extend[31] ?x90) bv0[32]))) (iff constraint11 (= (zero_extend[30] ?x95) bv1[32])) (iff constraint12 (not (= sfEvent_ bv4[32]))) (iff constraint13 (not (= sfEvent_ bv5[32]))) (iff constraint14 (not (= sfEvent_ bv1[32]))) (iff constraint15 (not (not (= (zero_extend[31] ?x101) bv0[32])))) (iff constraint16 (not (not (= (zero_extend[31] ?x107) bv0[32])))) (iff constraint17 (not (= (zero_extend[31] ?x113) bv0[32]))) (iff constraint18 (= ?x119 bv1[32])) (iff constraint19 (not $x123)) (iff constraint20 (not $x128)) (iff constraint21 (not $x134)) (iff constraint22 (not $x138)) (iff constraint23 (not $x142)) (iff constraint24 $x146) (iff constraint25 $x149) (iff constraint26 (= sf_previousEvent_1_ sfEvent_)) (iff constraint27 (= sfEvent__1_ bv4[32])) (iff constraint28 (not (= sfEvent__1_ bv8[32]))) (iff constraint29 (not (= (zero_extend[31] ?x157) bv0[32]))) (iff constraint30 (= (zero_extend[29] ?x162) bv1[32])) (iff constraint31 (not (= sfEvent__1_ bv2[32]))) (iff constraint32 (not (= sfEvent__1_ bv3[32]))) (iff constraint33 (not (= (zero_extend[31] ?x170) bv0[32]))) (iff constraint34 (not (= (zero_extend[30] ?x175) bv1[32]))) (iff constraint35 (= (zero_extend[30] ?x180) bv2[32])) (iff constraint36 (= sfEvent__1_ bv4[32])) (iff constraint37 $x185) $x469 $x471 (iff constraint40 (not (= (zero_extend[31] ?x194) bv0[32]))) (iff constraint41 (= (zero_extend[30] ?x199) bv1[32])) (iff constraint42 (= sfEvent__1_ bv4[32])) (iff constraint43 $x204) $x481 $x483 (iff constraint46 (not (not (= (zero_extend[31] ?x213) bv0[32])))) (iff constraint47 (not (not (= (zero_extend[31] ?x219) bv0[32])))) (iff constraint48 (not (= (zero_extend[31] ?x225) bv0[32]))) (iff constraint49 (= ?x231 bv1[32])) (iff constraint50 (not $x235)) (iff constraint51 (not $x239)) (iff constraint52 $x243) $x499 (iff constraint54 (= ?x249 bv1[32])) $x503 (iff constraint56 (= sfEvent__2_ sf_previousEvent_1_)) (iff constraint57 (= (zero_extend[31] ?x258) bv1[32])) $x509 (iff constraint59 (= gtINDEX0 gtAGG__rtDWork)) (iff constraint60 $x268) (iff constraint61 (= gtINDEX2 gtAGG__rtDWork)) (iff constraint62 $x272) (iff constraint63 (= gtINDEX4 gtAGG__rtDWork)) (iff constraint64 $x276) (iff constraint65 (= gtINDEX6 gtAGG__rtDWork)) (iff constraint66 $x280) (iff constraint67 (= gtINDEX8 gtAGG__rtDWork)) (iff constraint68 $x284) (iff constraint69 (= gtINDEX10 gtAGG__rtDWork)) (iff constraint70 $x288) (iff constraint71 (= gtINDEX12 gtAGG__rtDWork)) (iff constraint72 $x292) (iff constraint73 (= gtINDEX14 gtAGG__rtDWork)) (iff constraint74 $x296) (iff constraint75 (= gtINDEX16 gtAGG__rtDWork)) (iff constraint76 $x300) (iff constraint77 (= gtINDEX18 gtAGG__rtDWork)) (iff constraint78 $x304) (iff constraint79 (= gtINDEX20 gtAGG__rtDWork)) (iff constraint80 $x308) (iff constraint81 (= gtINDEX22 gtAGG__rtDWork)) (iff constraint82 (= gtINDEX23 gtAGG__rtDWork)) (iff constraint83 (= gtINDEX24 gtAGG__rtDWork)) (iff constraint84 (= gtINDEX25 gtAGG__rtDWork)) (iff constraint85 (= gtINDEX26 gtAGG__rtDWork)) (iff constraint86 (= gtINDEX27 gtAGG__rtDWork)) (iff constraint87 (= gtINDEX28 gtAGG__rtDWork)) (iff constraint88 (= gtINDEX29 gtAGG__rtDWork)) (iff constraint89 $x319) (iff constraint90 (= gtINDEX31 gtAGG__rtDWork)) (iff constraint91 $x323) (iff constraint92 (= gtINDEX33 gtAGG__rtDWork)) (iff constraint93 $x327) (iff constraint94 (= gtINDEX35 gtAGG__rtDWork)) (iff constraint95 $x331) (iff constraint96 (= gtINDEX37 gtAGG__rtDWork)) (iff constraint97 $x335) (iff constraint98 (= gtINDEX39 gtAGG__rtDWork)) (iff constraint99 (= gtINDEX40 gtAGG__rtDWork)) (iff constraint100 $x340) (iff constraint101 (= gtINDEX42 gtAGG__rtDWork)) (iff constraint102 (= gtINDEX43 gtAGG__rtDWork)) (iff constraint103 $x345) (iff constraint104 (= gtINDEX45 gtAGG__rtDWork)) (iff constraint105 $x349) (iff constraint106 (= gtINDEX47 gtAGG__rtDWork)) (iff constraint107 (= gtINDEX48 gtAGG__rtDWork)) (iff constraint108 $x354) (iff constraint109 (= gtINDEX50 gtAGG__rtDWork)) (iff constraint110 (= gtINDEX51 gtAGG__rtDWork)) (iff constraint111 $x359) (iff constraint112 (= gtINDEX53 gtAGG__rtDWork)) (iff constraint113 $x363) (iff constraint114 (= gtINDEX55 gtAGG__rtDWork)) (iff constraint115 $x367) (iff constraint116 (= gtINDEX57 gtAGG__rtDWork)) (iff constraint117 $x371) (iff constraint118 (= gtINDEX59 gtAGG__rtDWork)) (iff constraint119 (= gtINDEX60 gtAGG__rtDWork)) (iff constraint120 (= gtINDEX61 gtAGG__rtDWork)) (iff constraint121 (= gtINDEX62 gtAGG__rtDWork)) (iff constraint122 (= gtINDEX63 gtAGG__rtDWork)) (iff constraint123 $x379) (iff constraint124 (= gtINDEX65 gtAGG__rtDWork)) (iff constraint125 $x383) (iff constraint126 (= gtINDEX67 gtAGG__rtDWork)) (iff constraint127 $x387) (iff constraint128 (= gtINDEX69 gtAGG__rtDWork)) (iff constraint129 $x391)))
(and $x652 $x653)))))))))))))))))))))))))))))))))))))))))))))))))))))))))))))))))))))))))))))))))))
)
